\ LP format - for model browsing. Use MPS format to capture full model detail.
Maximize
  5 x0 + 2 x1 - 5 x2 - 2 x3 + 4 x4
Subject To
 constr(0): - x0 + x1 + 2 x2 + 4 x3 - 3 x4 <= 25
 constr(1): - 5 x0 - 3 x1 - 4 x2 + 3 x4 >= -0
 constr(2): x0 + 3 x1 + 2 x3 + 5 x4 <= 10
Bounds
 x0 <= 3
 x1 <= 3
 x2 <= 3
 x3 <= 3
 x4 <= 1

End
